p cnf 318 1203
c input variables 24
c output variables 24
c literals 3576
-25 4 0
25 -4 8 0
-25 -8 0
-26 3 0
26 -3 4 7 8 0
-26 4 -8 0
-26 -7 0
26 -3 -4 7 -8 0
-26 -4 8 0
27 -26 0
-27 25 26 0
27 -25 0
-28 2 0
28 -2 4 6 8 0
-28 4 -8 0
-28 -6 0
28 -2 -4 6 -8 0
-28 -4 8 0
29 3 7 -28 0
-29 28 0
-29 3 -7 0
-29 -3 7 0
29 -3 -7 -28 0
30 -29 0
-30 27 29 0
30 -27 0
-31 1 0
31 -1 4 5 8 0
-31 4 -8 0
-31 -5 0
31 -1 -4 5 -8 0
-31 -4 8 0
32 3 7 -31 0
-32 31 0
-32 3 -7 0
-32 -3 7 0
32 -3 -7 -31 0
33 2 6 -32 0
-33 32 0
-33 2 -6 0
-33 -2 6 0
33 -2 -6 -32 0
34 -33 0
-34 30 33 0
34 -30 0
35 -1 34 0
35 -5 -34 0
-35 1 34 0
-35 5 -34 0
36 -2 34 0
36 -6 -34 0
-36 2 34 0
-36 6 -34 0
37 -3 34 0
37 -7 -34 0
-37 3 34 0
-37 7 -34 0
38 -4 34 0
38 -8 -34 0
-38 4 34 0
-38 8 -34 0
39 -5 34 0
39 -1 -34 0
-39 5 34 0
-39 1 -34 0
40 -6 34 0
40 -2 -34 0
-40 6 34 0
-40 2 -34 0
41 -7 34 0
41 -3 -34 0
-41 7 34 0
-41 3 -34 0
42 -8 34 0
42 -4 -34 0
-42 8 34 0
-42 4 -34 0
43 12 -42 0
-43 42 0
-43 -12 0
-44 41 0
44 11 12 -41 42 0
-44 12 -42 0
44 11 -12 -41 -42 0
-44 -12 42 0
-44 -11 0
45 -44 0
-45 43 44 0
45 -43 0
-46 40 0
46 10 12 -40 42 0
-46 12 -42 0
46 10 -12 -40 -42 0
-46 -12 42 0
-46 -10 0
47 11 41 -46 0
-47 46 0
-47 11 -41 0
-47 -11 41 0
47 -11 -41 -46 0
48 -47 0
-48 45 47 0
48 -45 0
-49 39 0
49 9 12 -39 42 0
-49 12 -42 0
49 9 -12 -39 -42 0
-49 -12 42 0
-49 -9 0
50 11 41 -49 0
-50 49 0
-50 11 -41 0
-50 -11 41 0
50 -11 -41 -49 0
51 10 40 -50 0
-51 50 0
-51 10 -40 0
-51 -10 40 0
51 -10 -40 -50 0
52 -51 0
-52 48 51 0
52 -48 0
53 -39 52 0
53 -9 -52 0
-53 39 52 0
-53 9 -52 0
54 -40 52 0
54 -10 -52 0
-54 40 52 0
-54 10 -52 0
55 -41 52 0
55 -11 -52 0
-55 41 52 0
-55 11 -52 0
56 -42 52 0
56 -12 -52 0
-56 42 52 0
-56 12 -52 0
57 -9 52 0
57 -39 -52 0
-57 9 52 0
-57 39 -52 0
58 -10 52 0
58 -40 -52 0
-58 10 52 0
-58 40 -52 0
59 -11 52 0
59 -41 -52 0
-59 11 52 0
-59 41 -52 0
60 -12 52 0
60 -42 -52 0
-60 12 52 0
-60 42 -52 0
61 16 -60 0
-61 60 0
-61 -16 0
-62 59 0
62 15 16 -59 60 0
-62 16 -60 0
62 15 -16 -59 -60 0
-62 -16 60 0
-62 -15 0
63 -62 0
-63 61 62 0
63 -61 0
-64 58 0
64 14 16 -58 60 0
-64 16 -60 0
64 14 -16 -58 -60 0
-64 -16 60 0
-64 -14 0
65 15 59 -64 0
-65 64 0
-65 15 -59 0
-65 -15 59 0
65 -15 -59 -64 0
66 -65 0
-66 63 65 0
66 -63 0
-67 57 0
67 13 16 -57 60 0
-67 16 -60 0
67 13 -16 -57 -60 0
-67 -16 60 0
-67 -13 0
68 15 59 -67 0
-68 67 0
-68 15 -59 0
-68 -15 59 0
68 -15 -59 -67 0
69 14 58 -68 0
-69 68 0
-69 14 -58 0
-69 -14 58 0
69 -14 -58 -68 0
70 -69 0
-70 66 69 0
70 -66 0
71 -57 70 0
71 -13 -70 0
-71 57 70 0
-71 13 -70 0
72 -58 70 0
72 -14 -70 0
-72 58 70 0
-72 14 -70 0
73 -59 70 0
73 -15 -70 0
-73 59 70 0
-73 15 -70 0
74 -60 70 0
74 -16 -70 0
-74 60 70 0
-74 16 -70 0
75 -13 70 0
75 -57 -70 0
-75 13 70 0
-75 57 -70 0
76 -14 70 0
76 -58 -70 0
-76 14 70 0
-76 58 -70 0
77 -15 70 0
77 -59 -70 0
-77 15 70 0
-77 59 -70 0
78 -16 70 0
78 -60 -70 0
-78 16 70 0
-78 60 -70 0
79 20 -78 0
-79 78 0
-79 -20 0
-80 77 0
80 19 20 -77 78 0
-80 20 -78 0
80 19 -20 -77 -78 0
-80 -20 78 0
-80 -19 0
81 -80 0
-81 79 80 0
81 -79 0
-82 76 0
82 18 20 -76 78 0
-82 20 -78 0
82 18 -20 -76 -78 0
-82 -20 78 0
-82 -18 0
83 19 77 -82 0
-83 82 0
-83 19 -77 0
-83 -19 77 0
83 -19 -77 -82 0
84 -83 0
-84 81 83 0
84 -81 0
-85 75 0
85 17 20 -75 78 0
-85 20 -78 0
85 17 -20 -75 -78 0
-85 -20 78 0
-85 -17 0
86 19 77 -85 0
-86 85 0
-86 19 -77 0
-86 -19 77 0
86 -19 -77 -85 0
87 18 76 -86 0
-87 86 0
-87 18 -76 0
-87 -18 76 0
87 -18 -76 -86 0
88 -87 0
-88 84 87 0
88 -84 0
89 -75 88 0
89 -17 -88 0
-89 75 88 0
-89 17 -88 0
90 -76 88 0
90 -18 -88 0
-90 76 88 0
-90 18 -88 0
91 -77 88 0
91 -19 -88 0
-91 77 88 0
-91 19 -88 0
92 -78 88 0
92 -20 -88 0
-92 78 88 0
-92 20 -88 0
93 -17 88 0
93 -75 -88 0
-93 17 88 0
-93 75 -88 0
94 -18 88 0
94 -76 -88 0
-94 18 88 0
-94 76 -88 0
95 -19 88 0
95 -77 -88 0
-95 19 88 0
-95 77 -88 0
96 -20 88 0
96 -78 -88 0
-96 20 88 0
-96 78 -88 0
97 24 -96 0
-97 96 0
-97 -24 0
-98 95 0
98 23 24 -95 96 0
-98 24 -96 0
98 23 -24 -95 -96 0
-98 -24 96 0
-98 -23 0
99 -98 0
-99 97 98 0
99 -97 0
-100 94 0
100 22 24 -94 96 0
-100 24 -96 0
100 22 -24 -94 -96 0
-100 -24 96 0
-100 -22 0
101 23 95 -100 0
-101 100 0
-101 23 -95 0
-101 -23 95 0
101 -23 -95 -100 0
102 -101 0
-102 99 101 0
102 -99 0
-103 93 0
103 21 24 -93 96 0
-103 24 -96 0
103 21 -24 -93 -96 0
-103 -24 96 0
-103 -21 0
104 23 95 -103 0
-104 103 0
-104 23 -95 0
-104 -23 95 0
104 -23 -95 -103 0
105 22 94 -104 0
-105 104 0
-105 22 -94 0
-105 -22 94 0
105 -22 -94 -104 0
106 -105 0
-106 102 105 0
106 -102 0
107 -93 106 0
107 -21 -106 0
-107 93 106 0
-107 21 -106 0
108 -94 106 0
108 -22 -106 0
-108 94 106 0
-108 22 -106 0
109 -95 106 0
109 -23 -106 0
-109 95 106 0
-109 23 -106 0
110 -96 106 0
110 -24 -106 0
-110 96 106 0
-110 24 -106 0
111 -21 106 0
111 -93 -106 0
-111 21 106 0
-111 93 -106 0
112 -22 106 0
112 -94 -106 0
-112 22 106 0
-112 94 -106 0
113 -23 106 0
113 -95 -106 0
-113 23 106 0
-113 95 -106 0
114 -24 106 0
114 -96 -106 0
-114 24 106 0
-114 96 -106 0
-115 38 0
115 -38 56 0
-115 -56 0
-116 37 0
116 -37 38 55 56 0
-116 38 -56 0
-116 -55 0
116 -37 -38 55 -56 0
-116 -38 56 0
117 -116 0
-117 115 116 0
117 -115 0
-118 36 0
118 -36 38 54 56 0
-118 38 -56 0
-118 -54 0
118 -36 -38 54 -56 0
-118 -38 56 0
119 37 55 -118 0
-119 118 0
-119 37 -55 0
-119 -37 55 0
119 -37 -55 -118 0
120 -119 0
-120 117 119 0
120 -117 0
-121 35 0
121 -35 38 53 56 0
-121 38 -56 0
-121 -53 0
121 -35 -38 53 -56 0
-121 -38 56 0
122 37 55 -121 0
-122 121 0
-122 37 -55 0
-122 -37 55 0
122 -37 -55 -121 0
123 36 54 -122 0
-123 122 0
-123 36 -54 0
-123 -36 54 0
123 -36 -54 -122 0
124 -123 0
-124 120 123 0
124 -120 0
125 -35 124 0
125 -53 -124 0
-125 35 124 0
-125 53 -124 0
126 -36 124 0
126 -54 -124 0
-126 36 124 0
-126 54 -124 0
127 -37 124 0
127 -55 -124 0
-127 37 124 0
-127 55 -124 0
128 -38 124 0
128 -56 -124 0
-128 38 124 0
-128 56 -124 0
129 -53 124 0
129 -35 -124 0
-129 53 124 0
-129 35 -124 0
130 -54 124 0
130 -36 -124 0
-130 54 124 0
-130 36 -124 0
131 -55 124 0
131 -37 -124 0
-131 55 124 0
-131 37 -124 0
132 -56 124 0
132 -38 -124 0
-132 56 124 0
-132 38 -124 0
133 74 -132 0
-133 132 0
-133 -74 0
-134 131 0
134 73 74 -131 132 0
-134 74 -132 0
134 73 -74 -131 -132 0
-134 -74 132 0
-134 -73 0
135 -134 0
-135 133 134 0
135 -133 0
-136 130 0
136 72 74 -130 132 0
-136 74 -132 0
136 72 -74 -130 -132 0
-136 -74 132 0
-136 -72 0
137 73 131 -136 0
-137 136 0
-137 73 -131 0
-137 -73 131 0
137 -73 -131 -136 0
138 -137 0
-138 135 137 0
138 -135 0
-139 129 0
139 71 74 -129 132 0
-139 74 -132 0
139 71 -74 -129 -132 0
-139 -74 132 0
-139 -71 0
140 73 131 -139 0
-140 139 0
-140 73 -131 0
-140 -73 131 0
140 -73 -131 -139 0
141 72 130 -140 0
-141 140 0
-141 72 -130 0
-141 -72 130 0
141 -72 -130 -140 0
142 -141 0
-142 138 141 0
142 -138 0
143 -129 142 0
143 -71 -142 0
-143 129 142 0
-143 71 -142 0
144 -130 142 0
144 -72 -142 0
-144 130 142 0
-144 72 -142 0
145 -131 142 0
145 -73 -142 0
-145 131 142 0
-145 73 -142 0
146 -132 142 0
146 -74 -142 0
-146 132 142 0
-146 74 -142 0
147 -71 142 0
147 -129 -142 0
-147 71 142 0
-147 129 -142 0
148 -72 142 0
148 -130 -142 0
-148 72 142 0
-148 130 -142 0
149 -73 142 0
149 -131 -142 0
-149 73 142 0
-149 131 -142 0
150 -74 142 0
150 -132 -142 0
-150 74 142 0
-150 132 -142 0
151 92 -150 0
-151 150 0
-151 -92 0
-152 149 0
152 91 92 -149 150 0
-152 92 -150 0
152 91 -92 -149 -150 0
-152 -92 150 0
-152 -91 0
153 -152 0
-153 151 152 0
153 -151 0
-154 148 0
154 90 92 -148 150 0
-154 92 -150 0
154 90 -92 -148 -150 0
-154 -92 150 0
-154 -90 0
155 91 149 -154 0
-155 154 0
-155 91 -149 0
-155 -91 149 0
155 -91 -149 -154 0
156 -155 0
-156 153 155 0
156 -153 0
-157 147 0
157 89 92 -147 150 0
-157 92 -150 0
157 89 -92 -147 -150 0
-157 -92 150 0
-157 -89 0
158 91 149 -157 0
-158 157 0
-158 91 -149 0
-158 -91 149 0
158 -91 -149 -157 0
159 90 148 -158 0
-159 158 0
-159 90 -148 0
-159 -90 148 0
159 -90 -148 -158 0
160 -159 0
-160 156 159 0
160 -156 0
161 -147 160 0
161 -89 -160 0
-161 147 160 0
-161 89 -160 0
162 -148 160 0
162 -90 -160 0
-162 148 160 0
-162 90 -160 0
163 -149 160 0
163 -91 -160 0
-163 149 160 0
-163 91 -160 0
164 -150 160 0
164 -92 -160 0
-164 150 160 0
-164 92 -160 0
165 -89 160 0
165 -147 -160 0
-165 89 160 0
-165 147 -160 0
166 -90 160 0
166 -148 -160 0
-166 90 160 0
-166 148 -160 0
167 -91 160 0
167 -149 -160 0
-167 91 160 0
-167 149 -160 0
168 -92 160 0
168 -150 -160 0
-168 92 160 0
-168 150 -160 0
169 110 -168 0
-169 168 0
-169 -110 0
-170 167 0
170 109 110 -167 168 0
-170 110 -168 0
170 109 -110 -167 -168 0
-170 -110 168 0
-170 -109 0
171 -170 0
-171 169 170 0
171 -169 0
-172 166 0
172 108 110 -166 168 0
-172 110 -168 0
172 108 -110 -166 -168 0
-172 -110 168 0
-172 -108 0
173 109 167 -172 0
-173 172 0
-173 109 -167 0
-173 -109 167 0
173 -109 -167 -172 0
174 -173 0
-174 171 173 0
174 -171 0
-175 165 0
175 107 110 -165 168 0
-175 110 -168 0
175 107 -110 -165 -168 0
-175 -110 168 0
-175 -107 0
176 109 167 -175 0
-176 175 0
-176 109 -167 0
-176 -109 167 0
176 -109 -167 -175 0
177 108 166 -176 0
-177 176 0
-177 108 -166 0
-177 -108 166 0
177 -108 -166 -176 0
178 -177 0
-178 174 177 0
178 -174 0
179 -165 178 0
179 -107 -178 0
-179 165 178 0
-179 107 -178 0
180 -166 178 0
180 -108 -178 0
-180 166 178 0
-180 108 -178 0
181 -167 178 0
181 -109 -178 0
-181 167 178 0
-181 109 -178 0
182 -168 178 0
182 -110 -178 0
-182 168 178 0
-182 110 -178 0
183 -107 178 0
183 -165 -178 0
-183 107 178 0
-183 165 -178 0
184 -108 178 0
184 -166 -178 0
-184 108 178 0
-184 166 -178 0
185 -109 178 0
185 -167 -178 0
-185 109 178 0
-185 167 -178 0
186 -110 178 0
186 -168 -178 0
-186 110 178 0
-186 168 -178 0
-187 128 0
187 -128 146 0
-187 -146 0
-188 127 0
188 -127 128 145 146 0
-188 128 -146 0
-188 -145 0
188 -127 -128 145 -146 0
-188 -128 146 0
189 -188 0
-189 187 188 0
189 -187 0
-190 126 0
190 -126 128 144 146 0
-190 128 -146 0
-190 -144 0
190 -126 -128 144 -146 0
-190 -128 146 0
191 127 145 -190 0
-191 190 0
-191 127 -145 0
-191 -127 145 0
191 -127 -145 -190 0
192 -191 0
-192 189 191 0
192 -189 0
-193 125 0
193 -125 128 143 146 0
-193 128 -146 0
-193 -143 0
193 -125 -128 143 -146 0
-193 -128 146 0
194 127 145 -193 0
-194 193 0
-194 127 -145 0
-194 -127 145 0
194 -127 -145 -193 0
195 126 144 -194 0
-195 194 0
-195 126 -144 0
-195 -126 144 0
195 -126 -144 -194 0
196 -195 0
-196 192 195 0
196 -192 0
197 -125 196 0
197 -143 -196 0
-197 125 196 0
-197 143 -196 0
198 -126 196 0
198 -144 -196 0
-198 126 196 0
-198 144 -196 0
199 -127 196 0
199 -145 -196 0
-199 127 196 0
-199 145 -196 0
200 -128 196 0
200 -146 -196 0
-200 128 196 0
-200 146 -196 0
201 -143 196 0
201 -125 -196 0
-201 143 196 0
-201 125 -196 0
202 -144 196 0
202 -126 -196 0
-202 144 196 0
-202 126 -196 0
203 -145 196 0
203 -127 -196 0
-203 145 196 0
-203 127 -196 0
204 -146 196 0
204 -128 -196 0
-204 146 196 0
-204 128 -196 0
205 164 -204 0
-205 204 0
-205 -164 0
-206 203 0
206 163 164 -203 204 0
-206 164 -204 0
206 163 -164 -203 -204 0
-206 -164 204 0
-206 -163 0
207 -206 0
-207 205 206 0
207 -205 0
-208 202 0
208 162 164 -202 204 0
-208 164 -204 0
208 162 -164 -202 -204 0
-208 -164 204 0
-208 -162 0
209 163 203 -208 0
-209 208 0
-209 163 -203 0
-209 -163 203 0
209 -163 -203 -208 0
210 -209 0
-210 207 209 0
210 -207 0
-211 201 0
211 161 164 -201 204 0
-211 164 -204 0
211 161 -164 -201 -204 0
-211 -164 204 0
-211 -161 0
212 163 203 -211 0
-212 211 0
-212 163 -203 0
-212 -163 203 0
212 -163 -203 -211 0
213 162 202 -212 0
-213 212 0
-213 162 -202 0
-213 -162 202 0
213 -162 -202 -212 0
214 -213 0
-214 210 213 0
214 -210 0
215 -201 214 0
215 -161 -214 0
-215 201 214 0
-215 161 -214 0
216 -202 214 0
216 -162 -214 0
-216 202 214 0
-216 162 -214 0
217 -203 214 0
217 -163 -214 0
-217 203 214 0
-217 163 -214 0
218 -204 214 0
218 -164 -214 0
-218 204 214 0
-218 164 -214 0
219 -161 214 0
219 -201 -214 0
-219 161 214 0
-219 201 -214 0
220 -162 214 0
220 -202 -214 0
-220 162 214 0
-220 202 -214 0
221 -163 214 0
221 -203 -214 0
-221 163 214 0
-221 203 -214 0
222 -164 214 0
222 -204 -214 0
-222 164 214 0
-222 204 -214 0
223 182 -222 0
-223 222 0
-223 -182 0
-224 221 0
224 181 182 -221 222 0
-224 182 -222 0
224 181 -182 -221 -222 0
-224 -182 222 0
-224 -181 0
225 -224 0
-225 223 224 0
225 -223 0
-226 220 0
226 180 182 -220 222 0
-226 182 -222 0
226 180 -182 -220 -222 0
-226 -182 222 0
-226 -180 0
227 181 221 -226 0
-227 226 0
-227 181 -221 0
-227 -181 221 0
227 -181 -221 -226 0
228 -227 0
-228 225 227 0
228 -225 0
-229 219 0
229 179 182 -219 222 0
-229 182 -222 0
229 179 -182 -219 -222 0
-229 -182 222 0
-229 -179 0
230 181 221 -229 0
-230 229 0
-230 181 -221 0
-230 -181 221 0
230 -181 -221 -229 0
231 180 220 -230 0
-231 230 0
-231 180 -220 0
-231 -180 220 0
231 -180 -220 -230 0
232 -231 0
-232 228 231 0
232 -228 0
233 -219 232 0
233 -179 -232 0
-233 219 232 0
-233 179 -232 0
234 -220 232 0
234 -180 -232 0
-234 220 232 0
-234 180 -232 0
235 -221 232 0
235 -181 -232 0
-235 221 232 0
-235 181 -232 0
236 -222 232 0
236 -182 -232 0
-236 222 232 0
-236 182 -232 0
237 -179 232 0
237 -219 -232 0
-237 179 232 0
-237 219 -232 0
238 -180 232 0
238 -220 -232 0
-238 180 232 0
-238 220 -232 0
239 -181 232 0
239 -221 -232 0
-239 181 232 0
-239 221 -232 0
240 -182 232 0
240 -222 -232 0
-240 182 232 0
-240 222 -232 0
-241 200 0
241 -200 218 0
-241 -218 0
-242 199 0
242 -199 200 217 218 0
-242 200 -218 0
-242 -217 0
242 -199 -200 217 -218 0
-242 -200 218 0
243 -242 0
-243 241 242 0
243 -241 0
-244 198 0
244 -198 200 216 218 0
-244 200 -218 0
-244 -216 0
244 -198 -200 216 -218 0
-244 -200 218 0
245 199 217 -244 0
-245 244 0
-245 199 -217 0
-245 -199 217 0
245 -199 -217 -244 0
246 -245 0
-246 243 245 0
246 -243 0
-247 197 0
247 -197 200 215 218 0
-247 200 -218 0
-247 -215 0
247 -197 -200 215 -218 0
-247 -200 218 0
248 199 217 -247 0
-248 247 0
-248 199 -217 0
-248 -199 217 0
248 -199 -217 -247 0
249 198 216 -248 0
-249 248 0
-249 198 -216 0
-249 -198 216 0
249 -198 -216 -248 0
250 -249 0
-250 246 249 0
250 -246 0
251 -197 250 0
251 -215 -250 0
-251 197 250 0
-251 215 -250 0
252 -198 250 0
252 -216 -250 0
-252 198 250 0
-252 216 -250 0
253 -199 250 0
253 -217 -250 0
-253 199 250 0
-253 217 -250 0
254 -200 250 0
254 -218 -250 0
-254 200 250 0
-254 218 -250 0
255 -215 250 0
255 -197 -250 0
-255 215 250 0
-255 197 -250 0
256 -216 250 0
256 -198 -250 0
-256 216 250 0
-256 198 -250 0
257 -217 250 0
257 -199 -250 0
-257 217 250 0
-257 199 -250 0
258 -218 250 0
258 -200 -250 0
-258 218 250 0
-258 200 -250 0
259 236 -258 0
-259 258 0
-259 -236 0
-260 257 0
260 235 236 -257 258 0
-260 236 -258 0
260 235 -236 -257 -258 0
-260 -236 258 0
-260 -235 0
261 -260 0
-261 259 260 0
261 -259 0
-262 256 0
262 234 236 -256 258 0
-262 236 -258 0
262 234 -236 -256 -258 0
-262 -236 258 0
-262 -234 0
263 235 257 -262 0
-263 262 0
-263 235 -257 0
-263 -235 257 0
263 -235 -257 -262 0
264 -263 0
-264 261 263 0
264 -261 0
-265 255 0
265 233 236 -255 258 0
-265 236 -258 0
265 233 -236 -255 -258 0
-265 -236 258 0
-265 -233 0
266 235 257 -265 0
-266 265 0
-266 235 -257 0
-266 -235 257 0
266 -235 -257 -265 0
267 234 256 -266 0
-267 266 0
-267 234 -256 0
-267 -234 256 0
267 -234 -256 -266 0
268 -267 0
-268 264 267 0
268 -264 0
269 -255 268 0
269 -233 -268 0
-269 255 268 0
-269 233 -268 0
270 -256 268 0
270 -234 -268 0
-270 256 268 0
-270 234 -268 0
271 -257 268 0
271 -235 -268 0
-271 257 268 0
-271 235 -268 0
272 -258 268 0
272 -236 -268 0
-272 258 268 0
-272 236 -268 0
273 -233 268 0
273 -255 -268 0
-273 233 268 0
-273 255 -268 0
274 -234 268 0
274 -256 -268 0
-274 234 268 0
-274 256 -268 0
275 -235 268 0
275 -257 -268 0
-275 235 268 0
-275 257 -268 0
276 -236 268 0
276 -258 -268 0
-276 236 268 0
-276 258 -268 0
-277 254 0
277 -254 272 0
-277 -272 0
-278 253 0
278 -253 254 271 272 0
-278 254 -272 0
-278 -271 0
278 -253 -254 271 -272 0
-278 -254 272 0
279 -278 0
-279 277 278 0
279 -277 0
-280 252 0
280 -252 254 270 272 0
-280 254 -272 0
-280 -270 0
280 -252 -254 270 -272 0
-280 -254 272 0
281 253 271 -280 0
-281 280 0
-281 253 -271 0
-281 -253 271 0
281 -253 -271 -280 0
282 -281 0
-282 279 281 0
282 -279 0
-283 251 0
283 -251 254 269 272 0
-283 254 -272 0
-283 -269 0
283 -251 -254 269 -272 0
-283 -254 272 0
284 253 271 -283 0
-284 283 0
-284 253 -271 0
-284 -253 271 0
284 -253 -271 -283 0
285 252 270 -284 0
-285 284 0
-285 252 -270 0
-285 -252 270 0
285 -252 -270 -284 0
286 -285 0
-286 282 285 0
286 -282 0
287 -251 286 0
287 -269 -286 0
-287 251 286 0
-287 269 -286 0
288 -252 286 0
288 -270 -286 0
-288 252 286 0
-288 270 -286 0
289 -253 286 0
289 -271 -286 0
-289 253 286 0
-289 271 -286 0
290 -254 286 0
290 -272 -286 0
-290 254 286 0
-290 272 -286 0
291 -269 286 0
291 -251 -286 0
-291 269 286 0
-291 251 -286 0
292 -270 286 0
292 -252 -286 0
-292 270 286 0
-292 252 -286 0
293 -271 286 0
293 -253 -286 0
-293 271 286 0
-293 253 -286 0
294 -272 286 0
294 -254 -286 0
-294 272 286 0
-294 254 -286 0
-295 287 0
295 -287 0
-296 288 0
296 -288 0
-297 289 0
297 -289 0
-298 290 0
298 -290 0
-299 291 0
299 -291 0
-300 292 0
300 -292 0
-301 293 0
301 -293 0
-302 294 0
302 -294 0
-303 273 0
303 -273 0
-304 274 0
304 -274 0
-305 275 0
305 -275 0
-306 276 0
306 -276 0
-307 237 0
307 -237 0
-308 238 0
308 -238 0
-309 239 0
309 -239 0
-310 240 0
310 -240 0
-311 183 0
311 -183 0
-312 184 0
312 -184 0
-313 185 0
313 -185 0
-314 186 0
314 -186 0
-315 111 0
315 -111 0
-316 112 0
316 -112 0
-317 113 0
317 -113 0
-318 114 0
318 -114 0
